20
    1   84    74
    2  168   148
    3  336   296
    4  110   100
    5  110   100
    6   52    42
    7  105    85
    8  209   169
    9  105    85
   10   63    53
   11  127   107
   12  127   107
   13  108    98
   14   17     7
   15   33    13
   16   50    20
   17   18     8
   18   67    57
   19  134   114
   20  134   114
5624
